set vertices := o1 o2 o3 o4 o5 i1 i2 i3 i4 i5 ;

set edges := (o1,o2) (o2,o3) (o3,o4) (o4,o5) (o5,o1)
             (i1,i3) (i2,i4) (i3,i5) (i4,i1) (i5,i2)
             (i1,o1) (i2,o2) (i3,o3) (i4,o4) (i5,o5);

param ncolors := 4;
